c Output_time 26.03.2020 18:15:09_+0100 1585242909371212396
c ** Program information **
c program_name                          "QBRG_debug"
c version                               "0.3.20"
c date                                  "25.3.2020"
c gid_id                                "673970833836058123f633335630c185360d632e"
c author                                "Oliver Kullmann"
c url                                   "https://github.com/OKullmann/oklibrary/blob/master/Satisfiability/Transformers/Generators/Random/QBRG.cpp"
c ** Machine information **
c machine_name                          "chyna-Lenovo-G50-70"
c bogomips                              3791.08
c ** Compilation information **
c compiler_version                      "g++ 7.5.0"
c compilation_date                      "Mar_26_2020 11:16:30"
c compilation_options                   "--std=c++17 -pedantic -fmax-errors=5 -Wall -Wextra -g -D_GLIBCXX_DEBUG"
c NDEBUG                                0
c OPTIMIZE                              0
c ** Parameters **
c command-line                          "./QBRG_debug" "a40 e40 a40 40" "97*1,1|2-2,1|3-3,1|4-4,1" "" "1,t" ""
c output                                "QuBlRaGe_160_97_1585242909364553658.qdimacs"
c options                               "filtered,renamed"
c num_quantifier_blocks                 4
c  quantifier_blocks                    1:a1-40 2:e41-80 3:a81-120 4:e121-160
c num_clause-blocks                     1
c  clause-blocks                        97 * {1-40,1,1/2} | {41-80,1,1/2} | {81-120,1,1/2} | {121-160,1,1/2}
c num_e-seeds                           37+2=39
c  e-seeds                              1 0 1 0 5 160 2 40 0 40 1 40 0 40 1 97 4 1 1 1 1 2 2 2 1 1 2 3 3 1 1 2 4 4 1 1 2 1 1585242909364553189
p cnf 147 97
a 1 2 3 4 5 6 7 8 9 10 11 12 13 14 15 16 17 18 19 20 21 22 23 24 25 26 27 28 29 30 31 32 33 34 35 36 0
e 37 38 39 40 41 42 43 44 45 46 47 48 49 50 51 52 53 54 55 56 57 58 59 60 61 62 63 64 65 66 67 68 69 70 71 0
a 72 73 74 75 76 77 78 79 80 81 82 83 84 85 86 87 88 89 90 91 92 93 94 95 96 97 98 99 100 101 102 103 104 105 106 107 108 109 110 0
e 111 112 113 114 115 116 117 118 119 120 121 122 123 124 125 126 127 128 129 130 131 132 133 134 135 136 137 138 139 140 141 142 143 144 145 146 147 0
13 48 -105 -111 0
-12 42 109 111 0
7 -53 85 -112 0
21 42 91 -112 0
-7 68 96 -113 0
21 69 74 113 0
-31 -39 88 113 0
-4 -45 -98 -114 0
-17 61 -102 -114 0
2 65 81 114 0
20 38 -84 114 0
-9 -39 110 114 0
-5 43 90 -115 0
17 65 77 115 0
28 -47 -95 115 0
-26 -71 75 -116 0
-32 -51 84 -116 0
4 40 -79 116 0
30 44 -106 116 0
26 60 -74 -117 0
-26 55 83 117 0
19 59 84 -118 0
-22 38 -99 118 0
29 67 -102 118 0
26 63 84 -119 0
33 43 98 -119 0
-3 47 77 120 0
28 -44 -99 120 0
30 68 72 -121 0
-22 68 73 -121 0
-20 68 -100 -121 0
15 44 89 121 0
-28 61 -96 121 0
-17 -46 -73 -122 0
27 64 -101 -122 0
23 -37 -93 122 0
-20 -62 94 -123 0
-36 69 -96 -123 0
25 -43 101 -123 0
-3 -56 77 123 0
-27 70 -101 123 0
16 -55 -76 124 0
-35 -63 -77 -125 0
-14 48 107 -125 0
27 -43 72 125 0
8 42 90 -126 0
22 -51 -94 -126 0
27 54 -109 -126 0
-4 -40 -78 126 0
-23 66 -109 126 0
22 -51 -108 -127 0
-22 58 79 127 0
26 -63 -82 127 0
-10 -49 72 128 0
1 -39 -75 128 0
10 42 -87 128 0
-3 67 83 129 0
23 47 88 -130 0
20 -65 -87 130 0
8 -38 -76 -131 0
-25 -65 -85 -132 0
-10 50 -80 132 0
16 -68 110 -133 0
-12 -69 -99 133 0
-34 -39 74 134 0
-34 65 92 134 0
-29 58 74 -135 0
26 -42 86 -135 0
-21 -53 102 -135 0
29 41 -86 136 0
18 -68 101 -137 0
-16 43 -76 -138 0
15 -40 79 138 0
-33 69 -90 138 0
-32 -58 -97 138 0
-34 -44 -108 138 0
-23 50 108 138 0
-4 -48 -86 -139 0
-2 46 105 -139 0
11 -66 77 139 0
33 -38 -79 -140 0
32 -68 -86 -140 0
-1 52 98 -140 0
6 43 108 -140 0
36 -41 -78 140 0
11 -40 -93 141 0
-28 64 -82 -142 0
-19 67 86 -142 0
-30 71 90 -142 0
-1 53 -104 -143 0
32 -67 103 143 0
-33 -37 107 144 0
-24 52 100 -145 0
-15 57 -73 -146 0
15 -44 98 -146 0
6 59 98 -146 0
-34 50 -106 -147 0
